NAME : tsp_484_sol.txt
COMMENT : OR-Tools Guided Local Search
TYPE : TOUR
DIMENSION : 50
COST : 5984
STATUS : ROUTING_SUCCESS
GAP : 0.00% (Reference Solution)
TOUR_SECTION
1
49
38
3
6
16
17
29
8
14
48
35
36
21
32
2
46
43
4
24
27
39
22
28
20
19
18
41
50
33
10
34
47
26
45
7
37
25
30
12
31
5
44
11
40
23
42
15
9
13
-1
